language ESSENCE' 1.0
$ loaded file: carseqdata/csplib-instance-42
letting numcars=200
letting numclasses=27
letting numoptions=5
letting optMax=[1, 2, 1, 2, 1]
letting windowSize=[2, 3, 3, 5, 5]
letting numberPerClass=[1, 2, 2, 24, 1, 2, 1, 2, 12, 1, 9, 20, 2, 44, 3, 6, 7, 4, 8, 17, 4, 1, 4, 2, 2, 1, 18]
letting optionsRequired=[[1, 1, 1, 1, 0], [1, 0, 0, 0, 1], [1, 0, 1, 0, 1], [0, 0, 0, 1, 0], [1, 1, 1, 0, 1], [0, 1, 0, 1, 1], [1, 0, 1, 1, 1], [1, 1, 0, 1, 0], [0, 1, 0, 1, 0], [0, 0, 1, 0, 1], [1, 0, 0, 1, 0], [0, 0, 1, 0, 0], [1, 1, 1, 0, 0], [0, 1, 0, 0, 0], [0, 0, 1, 1, 0], [1, 0, 1, 0, 0], [0, 1, 1, 0, 0], [1, 1, 0, 0, 1], [0, 0, 0, 0, 1], [1, 0, 0, 0, 0], [1, 0, 0, 1, 1], [0, 1, 0, 0, 1], [0, 1, 1, 1, 0], [0, 0, 0, 1, 1], [0, 1, 1, 0, 0], [1, 0, 1, 0, 0], [1, 1, 0, 0, 0]]
